#######################################
### Exact MIP solver for the HHCRSP ###
#######################################
-- Instance file: new-instances/HHCRSP_25_5_34_1.2_R_C.txt
-- Max threads: 4
-- Time limit: 999999 seconds
-- Use initial solution: No
Trivial flow violations prevented generating 840 variables.
Model exported.
Version identifier: 20.1.0.0 | 2020-11-10 | 9bedb6d68
CPXPARAM_Threads                                 4
CPXPARAM_TimeLimit                               999999
Tried aggregator 1 time.
LP Presolve eliminated 316 rows and 89 columns.
Reduced LP has 794 rows, 773 columns, and 4898 nonzeros.
Presolve time = 0.00 sec. (1.84 ticks)

Iteration log . . .
Iteration:     1   Dual objective     =             0.000000
Iteration:    92   Dual objective     =            67.692300

Solution status from MIP model:
-- Processing time: 0.005 sec.
-- Memory used: 14.6406 MB
-- Best bound: inf
-- Obj value: 67.7237
-- Gap: inf%
-- Total distance: 203.171
-- Total tardiness: 0
-- Largest tardiness: 0
